(set-logic QF_UF)
(declare-fun A0 () Bool)
(declare-fun A1 () Bool)
(declare-fun A2 () Bool)
(declare-fun A3 () Bool)
(declare-fun A5 () Bool)
(declare-fun A6 () Bool)
(declare-fun A7 () Bool)
(declare-fun A8 () Bool)
(declare-fun A10 () Bool)
(declare-fun A12 () Bool)
(declare-fun A13 () Bool)
(declare-fun A14 () Bool)
(declare-fun A16 () Bool)
(declare-fun A17 () Bool)
(declare-fun A18 () Bool)
(declare-fun A19 () Bool)
(declare-fun A20 () Bool)
(declare-fun A21 () Bool)
(declare-fun A22 () Bool)
(declare-fun A23 () Bool)
(declare-fun A24 () Bool)
(declare-fun A25 () Bool)
(declare-fun A26 () Bool)
(declare-fun A27 () Bool)
(declare-fun A28 () Bool)
(declare-fun A29 () Bool)
(assert (let ((.def_0 (or A20 A21))) (let ((.def_1 (not .def_0))) (let ((.def_2 (not A8))) (let ((.def_3 (and .def_2 A20))) (let ((.def_4 (not .def_3))) (let ((.def_5 (and .def_4 .def_1))) (let ((.def_6 (and A7 A3))) (let ((.def_7 (not A23))) (let ((.def_8 (not A1))) (let ((.def_9 (or .def_8 .def_7))) (let ((.def_10 (or .def_9 .def_6))) (let ((.def_11 (and .def_10 .def_5))) (let ((.def_12 (and A7 A8))) (let ((.def_13 (and A1 A29))) (let ((.def_14 (and .def_13 .def_12))) (let ((.def_15 (not .def_14))) (let ((.def_16 (not A16))) (let ((.def_17 (or .def_16 A19))) (let ((.def_18 (not .def_17))) (let ((.def_19 (not A7))) (let ((.def_20 (not A10))) (let ((.def_21 (and .def_20 .def_19))) (let ((.def_22 (or .def_21 .def_18))) (let ((.def_23 (not .def_22))) (let ((.def_24 (or .def_23 .def_15))) (let ((.def_25 (and .def_24 .def_11))) (let ((.def_26 (not .def_25))) (let ((.def_27 (not A24))) (let ((.def_28 (not A3))) (let ((.def_29 (= .def_28 .def_27))) (let ((.def_30 (not .def_29))) (let ((.def_31 (not A18))) (let ((.def_32 (not A20))) (let ((.def_33 (or .def_32 .def_31))) (let ((.def_34 (not .def_33))) (let ((.def_35 (or .def_34 .def_30))) (let ((.def_36 (not A21))) (let ((.def_37 (or .def_7 .def_36))) (let ((.def_38 (not .def_37))) (let ((.def_39 (or A14 A19))) (let ((.def_40 (not .def_39))) (let ((.def_41 (or .def_40 .def_38))) (let ((.def_42 (not .def_41))) (let ((.def_43 (or .def_42 .def_35))) (let ((.def_44 (not .def_43))) (let ((.def_45 (not A17))) (let ((.def_46 (not A28))) (let ((.def_47 (or .def_46 .def_45))) (let ((.def_48 (not A13))) (let ((.def_49 (and .def_48 .def_45))) (let ((.def_50 (not .def_49))) (let ((.def_51 (or .def_50 .def_47))) (let ((.def_52 (not A0))) (let ((.def_53 (and .def_52 A27))) (let ((.def_54 (not .def_53))) (let ((.def_55 (not A2))) (let ((.def_56 (or A19 .def_55))) (let ((.def_57 (or .def_56 .def_54))) (let ((.def_58 (or .def_57 .def_51))) (let ((.def_59 (not .def_58))) (let ((.def_60 (or .def_59 .def_44))) (let ((.def_61 (not .def_60))) (let ((.def_62 (or .def_61 .def_26))) (let ((.def_63 (not .def_62))) (let ((.def_64 (and A6 .def_46))) (let ((.def_65 (not .def_64))) (let ((.def_66 (and A6 A14))) (let ((.def_67 (not .def_66))) (let ((.def_68 (and .def_67 .def_65))) (let ((.def_69 (not A25))) (let ((.def_70 (and .def_20 .def_69))) (let ((.def_71 (not A14))) (let ((.def_72 (and A5 .def_71))) (let ((.def_73 (not .def_72))) (let ((.def_74 (and .def_73 .def_70))) (let ((.def_75 (or .def_74 .def_68))) (let ((.def_76 (not .def_75))) (let ((.def_77 (or A25 A21))) (let ((.def_78 (not .def_77))) (let ((.def_79 (not A12))) (let ((.def_80 (or A5 .def_79))) (let ((.def_81 (not .def_80))) (let ((.def_82 (and .def_81 .def_78))) (let ((.def_83 (not .def_82))) (let ((.def_84 (not A6))) (let ((.def_85 (and .def_79 .def_84))) (let ((.def_86 (not .def_85))) (let ((.def_87 (not A22))) (let ((.def_88 (or .def_87 A3))) (let ((.def_89 (= .def_88 .def_86))) (let ((.def_90 (= .def_89 .def_83))) (let ((.def_91 (not .def_90))) (let ((.def_92 (or .def_91 .def_76))) (let ((.def_93 (not .def_92))) (let ((.def_94 (and .def_36 .def_71))) (let ((.def_95 (not .def_94))) (let ((.def_96 (and A13 A25))) (let ((.def_97 (not .def_96))) (let ((.def_98 (and .def_97 .def_95))) (let ((.def_99 (not .def_98))) (let ((.def_100 (and A22 A1))) (let ((.def_101 (not .def_100))) (let ((.def_102 (or A0 .def_45))) (let ((.def_103 (not .def_102))) (let ((.def_104 (and .def_103 .def_101))) (let ((.def_105 (not .def_104))) (let ((.def_106 (or .def_105 .def_99))) (let ((.def_107 (and A10 A29))) (let ((.def_108 (or A26 .def_45))) (let ((.def_109 (not .def_108))) (let ((.def_110 (or .def_109 .def_107))) (let ((.def_111 (and A20 A7))) (let ((.def_112 (= .def_8 A14))) (let ((.def_113 (not .def_112))) (let ((.def_114 (and .def_113 .def_111))) (let ((.def_115 (not .def_114))) (let ((.def_116 (or .def_115 .def_110))) (let ((.def_117 (not .def_116))) (let ((.def_118 (and .def_117 .def_106))) (let ((.def_119 (not .def_118))) (let ((.def_120 (and .def_119 .def_93))) (let ((.def_121 (not .def_120))) (let ((.def_122 (and .def_121 .def_63))) (let ((.def_123 (not .def_122))) .def_123)))))))))))))))))))))))))))))))))))))))))))))))))))))))))))))))))))))))))))))))))))))))))))))))))))))))))))))))))))))))))))))
(check-sat)
